0
Node Left Objective IInf Best_Integer Best_Bound ItCnt Gap
0 0 0.0000 6 0.0000 77
0 2 0.0000 7 0.0000 77 0 0
CPXPARAM_MIP_Cuts_Covers 0
1
Node Left Objective IInf Best_Integer Best_Bound ItCnt Gap
0 0 0.0000 4 0.0000 57
0 2 0.0000 4 0.0000 57 0 0
CPXPARAM_MIP_Cuts_Covers 0
2
Node Left Objective IInf Best_Integer Best_Bound ItCnt Gap
0 0 0.0000 6 0.0000 57
0 2 0.0000 6 0.0000 57 0 0
CPXPARAM_MIP_Cuts_Covers 0
3
Node Left Objective IInf Best_Integer Best_Bound ItCnt Gap
0 0 0 0.0000 0.0000 19 0.00% 0
CPXPARAM_MIP_Cuts_Covers 0
4
Node Left Objective IInf Best_Integer Best_Bound ItCnt Gap
0 0 0.0000 7 0.0000 62
0 2 0.0000 7 0.0000 62 0 0
CPXPARAM_MIP_Cuts_Covers 0
5
Node Left Objective IInf Best_Integer Best_Bound ItCnt Gap
0 0 0.0000 3 0.0000 48
0 2 0.0000 3 0.0000 86 0 0
CPXPARAM_MIP_Cuts_Covers 0
6
Node Left Objective IInf Best_Integer Best_Bound ItCnt Gap
0 0 0.0000 5 0.0000 26
0 2 0.0000 3 0.0000 43 0 0
CPXPARAM_MIP_Cuts_Covers 0
7
Node Left Objective IInf Best_Integer Best_Bound ItCnt Gap
0 0 0 0.0000 0.0000 28 0.00% 0
CPXPARAM_MIP_Cuts_Covers 0
8
Node Left Objective IInf Best_Integer Best_Bound ItCnt Gap
0 0 0.0000 8 0.0000 65
0 2 0.0000 8 0.0000 65 0 0
CPXPARAM_MIP_Cuts_Covers 0
9
Node Left Objective IInf Best_Integer Best_Bound ItCnt Gap
0 0 0.0000 4 0.0000 55
0 2 0.0000 4 0.0000 94 0 0
CPXPARAM_MIP_Cuts_Covers 0
10
Node Left Objective IInf Best_Integer Best_Bound ItCnt Gap
0 0 0.0000 5 0.0000 71
0 2 0.0000 5 0.0000 71 0 0
CPXPARAM_MIP_Cuts_Covers 0
11
Node Left Objective IInf Best_Integer Best_Bound ItCnt Gap
0 0 0.0000 2 0.0000 41
0 2 0.0000 2 0.0000 56 0 0
CPXPARAM_MIP_Cuts_Covers 0
12
Node Left Objective IInf Best_Integer Best_Bound ItCnt Gap
0 0 0.0000 4 0.0000 55
0 2 0.0000 4 0.0000 55 0 0
CPXPARAM_MIP_Cuts_Covers 0
13
Node Left Objective IInf Best_Integer Best_Bound ItCnt Gap
0 0 0.0000 6 0.0000 57
0 2 0.0000 8 0.0000 77 0 0
CPXPARAM_MIP_Cuts_Covers 0
14
Node Left Objective IInf Best_Integer Best_Bound ItCnt Gap
0 0 0.0000 2 0.0000 30
0 2 0.0000 2 0.0000 70 0 0
CPXPARAM_MIP_Cuts_Covers 0
15
Node Left Objective IInf Best_Integer Best_Bound ItCnt Gap
0 0 0.0000 1 0.0000 35
0 2 0.0000 2 0.0000 75 0 0
CPXPARAM_MIP_Cuts_Covers 0
16
Node Left Objective IInf Best_Integer Best_Bound ItCnt Gap
0 0 0.0000 5 0.0000 63
0 2 0.0000 5 0.0000 63 0 0
CPXPARAM_MIP_Cuts_Covers 0
17
Node Left Objective IInf Best_Integer Best_Bound ItCnt Gap
0 0 0.0000 4 0.0000 48
0 2 0.0000 4 0.0000 48 0 0
CPXPARAM_MIP_Cuts_Covers 0
18
Node Left Objective IInf Best_Integer Best_Bound ItCnt Gap
0 0 0.0000 4 0.0000 28
0 2 0.0000 5 0.0000 51 0 0
CPXPARAM_MIP_Cuts_Covers 0
19
Node Left Objective IInf Best_Integer Best_Bound ItCnt Gap
0 0 0 0.0000 0.0000 40 0.00% 0
CPXPARAM_MIP_Cuts_Covers 0
20
Node Left Objective IInf Best_Integer Best_Bound ItCnt Gap
0 0 0.0000 6 0.0000 54
0 2 0.0000 4 0.0000 91 0 0
CPXPARAM_MIP_Cuts_Covers 0
21
Node Left Objective IInf Best_Integer Best_Bound ItCnt Gap
0 0 0.0000 3 0.0000 52
0 2 0.0000 4 0.0000 90 0 0
CPXPARAM_MIP_Cuts_Covers 0
22
Node Left Objective IInf Best_Integer Best_Bound ItCnt Gap
0 0 0.0000 3 0.0000 18
0 2 0.0000 2 0.0000 44 0 0
CPXPARAM_MIP_Cuts_Covers 0
23
Node Left Objective IInf Best_Integer Best_Bound ItCnt Gap
0 0 0.0000 4 0.0000 23
0 2 0.0000 4 0.0000 42 0 0
CPXPARAM_MIP_Cuts_Covers 0
24
Node Left Objective IInf Best_Integer Best_Bound ItCnt Gap
0 0 0.0000 3 0.0000 53
0 2 0.0000 3 0.0000 53 0 0
CPXPARAM_MIP_Cuts_Covers 0
25
Node Left Objective IInf Best_Integer Best_Bound ItCnt Gap
0 0 0.0000 6 0.0000 52
0 2 0.0000 6 0.0000 52 0 0
CPXPARAM_MIP_Cuts_Covers 0
26
Node Left Objective IInf Best_Integer Best_Bound ItCnt Gap
0 0 0 0.0000 0.0000 14 0.00% 0
CPXPARAM_MIP_Cuts_Covers 0
27
Node Left Objective IInf Best_Integer Best_Bound ItCnt Gap
0 0 0 0.0000 0.0000 19 0.00% 0
CPXPARAM_MIP_Cuts_Covers 0
28
Node Left Objective IInf Best_Integer Best_Bound ItCnt Gap
0 0 0.0000 6 0.0000 62
0 2 0.0000 6 0.0000 62 0 0
CPXPARAM_MIP_Cuts_Covers 0
29
Node Left Objective IInf Best_Integer Best_Bound ItCnt Gap
0 0 0.0000 4 0.0000 48
0 2 0.0000 4 0.0000 99 0 0
CPXPARAM_MIP_Cuts_Covers 0
30
Node Left Objective IInf Best_Integer Best_Bound ItCnt Gap
0 0 0 0.0000 0.0000 20 0.00% 0
CPXPARAM_MIP_Cuts_Covers 0
31
Node Left Objective IInf Best_Integer Best_Bound ItCnt Gap
0 0 0 0.0000 0.0000 27 0.00% 0
CPXPARAM_MIP_Cuts_Covers 0
32
Node Left Objective IInf Best_Integer Best_Bound ItCnt Gap
0 0 0.0000 9 0.0000 59
0 2 0.0000 9 0.0000 59 0 0
CPXPARAM_MIP_Cuts_Covers 0
33
Node Left Objective IInf Best_Integer Best_Bound ItCnt Gap
0 0 0.0000 7 0.0000 61
0 2 0.0000 7 0.0000 61 0 0
CPXPARAM_MIP_Cuts_Covers 0
34
Node Left Objective IInf Best_Integer Best_Bound ItCnt Gap
0 0 0.0000 3 0.0000 40
0 2 0.0000 4 0.0000 72 0 0
CPXPARAM_MIP_Cuts_Covers 0
35
Node Left Objective IInf Best_Integer Best_Bound ItCnt Gap
0 0 0 0.0000 0.0000 28 0.00% 0
CPXPARAM_MIP_Cuts_Covers 0
36
Node Left Objective IInf Best_Integer Best_Bound ItCnt Gap
0 0 0.0000 8 0.0000 61
0 2 0.0000 9 0.0000 61 0 0
CPXPARAM_MIP_Cuts_Covers 0
37
Node Left Objective IInf Best_Integer Best_Bound ItCnt Gap
0 0 0.0000 5 0.0000 63
0 2 0.0000 6 0.0000 63 0 0
CPXPARAM_MIP_Cuts_Covers 0
38
Node Left Objective IInf Best_Integer Best_Bound ItCnt Gap
0 0 0.0000 3 0.0000 39
0 2 0.0000 2 0.0000 56 0 0
CPXPARAM_MIP_Cuts_Covers 0
39
Node Left Objective IInf Best_Integer Best_Bound ItCnt Gap
0 0 0 0.0000 0.0000 28 0.00% 0
CPXPARAM_MIP_Cuts_Covers 0
